webassembly/ejemplos_dzn/folder10_json_98.dzn
TERM = { '.', 's(2)', 'in_1', 'local_0', 'local_1', 'in_2', 'in_4', 'in_3', 's(1)', 's(0)', 's(3)', 'in_0'};
null = '.';
s = 10;
n = 10;
ndeps = 3;
max_registers_sz = 5;
NR = 2;
registers = [|'local_0', 'in_2', |'local_1', 's(2)'|];
dependencies = [|'i32.load8_u_2', 'call[function_index(0)]_9', |'i32.load16_u_5', 'call[function_index(0)]_9', |'i32.load_6', 'call[function_index(0)]_9'|];
GET_ENUM = { GET1, GET2, GET3, GET4, GET5, GET6, GET7};
SET_ENUM = { SET1, SET2, SET3, SET4, SET5, SET6, SET7};
TEE_ENUM = { TEE1, TEE2, TEE3, TEE4, TEE5, TEE6, TEE7};
N = 5;
OP = { 'i32.sub_0', 'call[function_index(0)]_9', 'i32.load8_u_2', 'i32.load16_u_5', 'i32.load_6' };
in_ops = [2, 1, 1, 1, 1 ];
out_ops = [1, 0, 1, 1, 1 ];
in1 = ['s(2)', 's(3)', 'in_1', 'in_3', 's(1)' ];
in2 = ['in_4', '.', '.', '.', '.' ];
in3 = ['.', '.', '.', '.', '.' ];
out1 = ['s(3)', '.', 's(0)', 's(1)', 's(2)' ];
out2 = ['.', '.', '.', '.', '.' ];
out3 = ['.', '.', '.', '.', '.' ];
comm = [false, false, false, false, false ];
gas = [1, 1, 1, 1, 1 ];
sz = [1, 1, 1, 1, 1 ];
stor = [false, true, false, false, false ];
lb = [ 1, 1, 1, 1, 1 ];
ub = [ 10, 10, 10, 10, 10 ];
startstack = [ 'in_0', 'in_1', 'in_2', 'in_3', 'in_4', null, null, null, null, null ];
endstack = [ null, null, null, null, null, null, null, null, null, null ];
